\ENCODING=ISO-8859-1
\Problem name: spp

Minimize
 obj: 169 x1 + 131 x2 + 286 x3 + 371 x4 + 457 x5 + 409 x6 + 155 x7 + 346 x8
      + 300 x9 + 219 x10 + 245 x11 + 274 x12 + 319 x13 + 360 x14 + 347 x15
      + 187 x16 + 178 x17 + 287 x18 + 288 x19 + 390 x20 + 349 x21 + 529 x22
      + 462 x23 + 586 x24 + 471 x25 + 77 x26 + 130 x27 + 121 x28 + 109 x29
      + 148 x30 + 203 x31 + 154 x32 + 170 x33 + 254 x34 + 307 x35 + 91 x36
      + 61 x37 + 203 x38 + 236 x39 + 297 x40 + 285 x41 + 342 x42
Subject To
 c1:  x1 + x2 + x3 + x4 + x5 + x6  = 1
 c2:  x7 + x8 + x9  = 1
 c3:  x10 + x11 + x12 + x13 + x14 + x15  = 1
 c4:  x16 + x17 + x18 + x19 + x20 + x21 + x22 + x23 + x24 + x25  = 1
 c5:  x26  = 1
 c6:  x27 + x28 + x29  = 1
 c7:  x30 + x31 + x32 + x33 + x34 + x35  = 1
 c8:  x36  = 1
 c9:  x37 + x38 + x39 + x40 + x41 + x42  = 1
 c10: x1 + x16  = 1
 c11: x2 + x17  = 1
 c12: x18 + x37  = 1
 c13: x3 + x7 + x10 + x19  = 1
 c14: x11 + x20  = 1
 c15: x21 + x27 + x30 + x38  = 1
 c16: x4 + x12 + x22 + x28 + x31 + x39  = 1
 c17: x5 + x8 + x13 + x23 + x29 + x32 + x36 + x40  = 1
 c18: x6 + x9 + x14 + x24 + x33  = 1
 c19: x15 + x25 + x26 + x34 + x41  = 1
 c20: x35 + x42  = 1
Bounds
 0 <= x1 <= 1
 0 <= x2 <= 1
 0 <= x3 <= 1
 0 <= x4 <= 1
 0 <= x5 <= 1
 0 <= x6 <= 1
 0 <= x7 <= 1
 0 <= x8 <= 1
 0 <= x9 <= 1
 0 <= x10 <= 1
 0 <= x11 <= 1
 0 <= x12 <= 1
 0 <= x13 <= 1
 0 <= x14 <= 1
 0 <= x15 <= 1
 0 <= x16 <= 1
 0 <= x17 <= 1
 0 <= x18 <= 1
 0 <= x19 <= 1
 0 <= x20 <= 1
 0 <= x21 <= 1
 0 <= x22 <= 1
 0 <= x23 <= 1
 0 <= x24 <= 1
 0 <= x25 <= 1
 0 <= x26 <= 1
 0 <= x27 <= 1
 0 <= x28 <= 1
 0 <= x29 <= 1
 0 <= x30 <= 1
 0 <= x31 <= 1
 0 <= x32 <= 1
 0 <= x33 <= 1
 0 <= x34 <= 1
 0 <= x35 <= 1
 0 <= x36 <= 1
 0 <= x37 <= 1
 0 <= x38 <= 1
 0 <= x39 <= 1
 0 <= x40 <= 1
 0 <= x41 <= 1
 0 <= x42 <= 1
End
